(set-info :source |printed by MathSAT|)
(declare-fun .y.8 () (Array Int Int))
(declare-fun A_3 () Bool)
(declare-fun .y.12 () Bool)
(declare-fun B_2 () Int)
(declare-fun .y.13 () Int)
(declare-fun D_2 () Int)
(declare-fun .y.14 () Int)
(declare-fun E_2 () (Array Int Int))
(declare-fun .y.15 () (Array Int Int))
(declare-fun .loc.9 () Bool)
(declare-fun .loc.16 () Bool)
(declare-fun .loc.10 () Bool)
(declare-fun .loc.17 () Bool)
(declare-fun F2 () Int)
(declare-fun U () Int)
(declare-fun O () Int)
(declare-fun A1 () Int)
(declare-fun N1 () Int)
(declare-fun R1 () Int)
(declare-fun X1 () Int)
(declare-fun K2 () Int)
(declare-fun L2 () Int)
(declare-fun O2 () Int)
(declare-fun W2 () Int)
(declare-fun B3 () Int)
(declare-fun C3 () Int)
(declare-fun H3 () Int)
(declare-fun P () Int)
(declare-fun V () Int)
(declare-fun B1 () Int)
(declare-fun L1 () Int)
(declare-fun S1 () Int)
(declare-fun Y1 () Int)
(declare-fun I2 () Int)
(declare-fun P2 () Int)
(declare-fun Z2 () Int)
(declare-fun A_0 () (Array Int Int))
(define-fun .def_8 () (Array Int Int) (! .y.8 :next |.y.11|))
(define-fun .def_10 () Bool (! A_3 :next |.y.12|))
(define-fun .def_12 () Int (! B_2 :next |.y.13|))
(define-fun .def_14 () Int (! D_2 :next |.y.14|))
(define-fun .def_16 () (Array Int Int) (! E_2 :next |.y.15|))
(define-fun .def_18 () Bool (! .loc.9 :next |.loc.16|))
(define-fun .def_20 () Bool (! .loc.10 :next |.loc.17|))
(define-fun .def_62 () Int (! F2 :next |.xtv.1|))
(define-fun .def_64 () Int (! U :next |.xtv.2|))
(define-fun .def_70 () Int (! O :next |.xtv.3|))
(define-fun .def_77 () Int (! A1 :next |.xtv.4|))
(define-fun .def_84 () Int (! N1 :next |.xtv.5|))
(define-fun .def_90 () Int (! R1 :next |.xtv.6|))
(define-fun .def_96 () Int (! X1 :next |.xtv.7|))
(define-fun .def_102 () Int (! K2 :next |.xtv.8|))
(define-fun .def_107 () Int (! L2 :next |.xtv.9|))
(define-fun .def_112 () Int (! O2 :next |.xtv.10|))
(define-fun .def_117 () Int (! W2 :next |.xtv.11|))
(define-fun .def_122 () Int (! B3 :next |.xtv.12|))
(define-fun .def_127 () Int (! C3 :next |.xtv.13|))
(define-fun .def_132 () Int (! H3 :next |.xtv.14|))
(define-fun .def_146 () Int (! P :next |.xtv.15|))
(define-fun .def_155 () Int (! V :next |.xtv.16|))
(define-fun .def_164 () Int (! B1 :next |.xtv.17|))
(define-fun .def_169 () Int (! L1 :next |.xtv.18|))
(define-fun .def_182 () Int (! S1 :next |.xtv.19|))
(define-fun .def_191 () Int (! Y1 :next |.xtv.20|))
(define-fun .def_196 () Int (! I2 :next |.xtv.21|))
(define-fun .def_213 () Int (! P2 :next |.xtv.22|))
(define-fun .def_222 () Int (! Z2 :next |.xtv.23|))
(define-fun .def_422 () (Array Int Int) (! A_0 :next |.xtv.24|))
(define-fun .def_439 () Bool (not .def_20))
(define-fun .def_243 () Bool (not .def_18))
(define-fun .def_441 () Bool (! (and .def_243 .def_439) :init true))
(define-fun .def_435 () Bool (not .loc.16))
(define-fun .def_29 () Int (* 4 .def_12))
(define-fun .def_31 () Int (+ .def_29 .def_14))
(define-fun .def_45 () Int (+ .def_31 4))
(define-fun .def_46 () Int (select .def_16 .def_45))
(define-fun .def_47 () Int (* (- 1) .def_46))
(define-fun .def_48 () Int (+ .def_12 .def_47))
(define-fun .def_49 () Bool (= .def_48 (- 1)))
(define-fun .def_50 () Bool (not .def_49))
(define-fun .def_24 () Bool (<= .def_14 0))
(define-fun .def_25 () Bool (not .def_24))
(define-fun .def_22 () Bool (not .def_10))
(define-fun .def_26 () Bool (and .def_22 .def_25))
(define-fun .def_430 () Bool (and .def_26 .def_50))
(define-fun .def_32 () Bool (<= .def_31 (- 4)))
(define-fun .def_33 () Bool (not .def_32))
(define-fun .def_34 () Bool (or .def_24 .def_33))
(define-fun .def_431 () Bool (and .def_34 .def_430))
(define-fun .def_36 () Bool (<= 4 .def_12))
(define-fun .def_37 () Bool (not .def_36))
(define-fun .def_432 () Bool (and .def_37 .def_431))
(define-fun .def_433 () Bool (and .def_18 .def_432))
(define-fun .def_434 () Bool (and .loc.17 .def_433))
(define-fun .def_436 () Bool (and .def_434 .def_435))
(define-fun .def_417 () Int (+ .y.14 4))
(define-fun .def_418 () Int (+ .y.14 8))
(define-fun .def_419 () Int (+ .y.14 12))
(define-fun .def_421 () Int (+ .y.14 16))
(define-fun .def_423 () (Array Int Int) (store .def_422 .def_421 4))
(define-fun .def_424 () (Array Int Int) (store .def_423 .def_419 3))
(define-fun .def_425 () (Array Int Int) (store .def_424 .def_418 2))
(define-fun .def_426 () (Array Int Int) (store .def_425 .def_417 1))
(define-fun .def_427 () (Array Int Int) (store .def_426 .y.14 0))
(define-fun .def_428 () Bool (= .y.15 .def_427))
(define-fun .def_362 () Int (select .def_8 .def_62))
(define-fun .def_251 () Int (+ .def_62 (- 4)))
(define-fun .def_252 () Int (select .def_8 .def_251))
(define-fun .def_363 () Bool (<= .def_252 .def_362))
(define-fun .def_364 () Bool (not .def_363))
(define-fun .def_365 () Int (ite .def_364 1 0))
(define-fun .def_411 () Int (* 4 .def_365))
(define-fun .def_412 () Int (* (- 1) .def_146))
(define-fun .def_413 () Int (+ .def_412 .def_411))
(define-fun .def_414 () Int (+ .def_62 .def_413))
(define-fun .def_415 () Bool (= .def_414 4))
(define-fun .def_366 () Int (select .def_8 .def_70))
(define-fun .def_367 () Int (select .def_8 .def_146))
(define-fun .def_368 () Bool (<= .def_367 .def_366))
(define-fun .def_369 () Bool (not .def_368))
(define-fun .def_370 () Int (ite .def_369 2 .def_365))
(define-fun .def_402 () Int (* 4 .def_370))
(define-fun .def_403 () Int (* (- 1) .def_155))
(define-fun .def_404 () Int (+ .def_403 .def_402))
(define-fun .def_405 () Int (+ .def_62 .def_404))
(define-fun .def_406 () Bool (= .def_405 4))
(define-fun .def_371 () Int (select .def_8 .def_64))
(define-fun .def_372 () Int (select .def_8 .def_155))
(define-fun .def_373 () Bool (<= .def_372 .def_371))
(define-fun .def_374 () Bool (not .def_373))
(define-fun .def_375 () Int (ite .def_374 3 .def_370))
(define-fun .def_393 () Int (* 4 .def_375))
(define-fun .def_394 () Int (* (- 1) .def_164))
(define-fun .def_395 () Int (+ .def_394 .def_393))
(define-fun .def_396 () Int (+ .def_62 .def_395))
(define-fun .def_397 () Bool (= .def_396 4))
(define-fun .def_376 () Int (select .def_8 .def_77))
(define-fun .def_377 () Int (select .def_8 .def_164))
(define-fun .def_378 () Bool (<= .def_377 .def_376))
(define-fun .def_379 () Bool (not .def_378))
(define-fun .def_380 () Int (ite .def_379 4 .def_375))
(define-fun .def_384 () Int (* 4 .def_380))
(define-fun .def_385 () Int (* (- 1) .def_169))
(define-fun .def_386 () Int (+ .def_385 .def_384))
(define-fun .def_387 () Int (+ .def_62 .def_386))
(define-fun .def_388 () Bool (= .def_387 4))
(define-fun .def_253 () Int (select .def_8 .def_169))
(define-fun .def_254 () (Array Int Int) (store .def_8 .def_251 .def_253))
(define-fun .def_255 () (Array Int Int) (store .def_254 .def_169 .def_252))
(define-fun .def_322 () Int (select .def_255 .def_84))
(define-fun .def_256 () Int (select .def_255 .def_62))
(define-fun .def_323 () Bool (<= .def_256 .def_322))
(define-fun .def_324 () Bool (not .def_323))
(define-fun .def_325 () Int (ite .def_324 2 1))
(define-fun .def_356 () Int (* 4 .def_325))
(define-fun .def_357 () Int (* (- 1) .def_182))
(define-fun .def_358 () Int (+ .def_357 .def_356))
(define-fun .def_359 () Int (+ .def_62 .def_358))
(define-fun .def_360 () Bool (= .def_359 4))
(define-fun .def_326 () Int (select .def_255 .def_90))
(define-fun .def_327 () Int (select .def_255 .def_182))
(define-fun .def_328 () Bool (<= .def_327 .def_326))
(define-fun .def_329 () Bool (not .def_328))
(define-fun .def_330 () Int (ite .def_329 3 .def_325))
(define-fun .def_347 () Int (* 4 .def_330))
(define-fun .def_348 () Int (* (- 1) .def_191))
(define-fun .def_349 () Int (+ .def_348 .def_347))
(define-fun .def_350 () Int (+ .def_62 .def_349))
(define-fun .def_351 () Bool (= .def_350 4))
(define-fun .def_331 () Int (select .def_255 .def_96))
(define-fun .def_332 () Int (select .def_255 .def_191))
(define-fun .def_333 () Bool (<= .def_332 .def_331))
(define-fun .def_334 () Bool (not .def_333))
(define-fun .def_335 () Int (ite .def_334 4 .def_330))
(define-fun .def_336 () Int (* 4 .def_335))
(define-fun .def_337 () Int (* (- 1) .def_196))
(define-fun .def_340 () Int (+ .def_337 .def_336))
(define-fun .def_341 () Int (+ .def_62 .def_340))
(define-fun .def_342 () Bool (= .def_341 4))
(define-fun .def_257 () Int (select .def_255 .def_196))
(define-fun .def_258 () (Array Int Int) (store .def_255 .def_62 .def_257))
(define-fun .def_259 () (Array Int Int) (store .def_258 .def_196 .def_256))
(define-fun .def_296 () Int (select .def_259 .def_102))
(define-fun .def_260 () Int (select .def_259 .def_107))
(define-fun .def_297 () Bool (<= .def_260 .def_296))
(define-fun .def_298 () Bool (not .def_297))
(define-fun .def_299 () Int (ite .def_298 3 2))
(define-fun .def_313 () Int (* 4 .def_299))
(define-fun .def_314 () Int (* (- 1) .def_213))
(define-fun .def_317 () Int (+ .def_314 .def_313))
(define-fun .def_318 () Int (+ .def_62 .def_317))
(define-fun .def_319 () Bool (= .def_318 4))
(define-fun .def_300 () Int (select .def_259 .def_112))
(define-fun .def_301 () Int (select .def_259 .def_213))
(define-fun .def_302 () Bool (<= .def_301 .def_300))
(define-fun .def_303 () Bool (not .def_302))
(define-fun .def_304 () Int (ite .def_303 4 .def_299))
(define-fun .def_305 () Int (* 4 .def_304))
(define-fun .def_306 () Int (* (- 1) .def_222))
(define-fun .def_309 () Int (+ .def_306 .def_305))
(define-fun .def_310 () Int (+ .def_62 .def_309))
(define-fun .def_311 () Bool (= .def_310 4))
(define-fun .def_275 () Bool (<= .y.14 0))
(define-fun .def_293 () Bool (not .def_275))
(define-fun .def_289 () Bool (<= .y.14 (- 16)))
(define-fun .def_290 () Bool (not .def_289))
(define-fun .def_291 () Bool (or .def_275 .def_290))
(define-fun .def_284 () Bool (<= .y.14 (- 12)))
(define-fun .def_285 () Bool (not .def_284))
(define-fun .def_286 () Bool (or .def_275 .def_285))
(define-fun .def_280 () Bool (<= .y.14 (- 4)))
(define-fun .def_281 () Bool (not .def_280))
(define-fun .def_282 () Bool (or .def_275 .def_281))
(define-fun .def_276 () Bool (<= .y.14 (- 8)))
(define-fun .def_277 () Bool (not .def_276))
(define-fun .def_278 () Bool (or .def_275 .def_277))
(define-fun .def_261 () Int (select .def_259 .def_222))
(define-fun .def_262 () (Array Int Int) (store .def_259 .def_117 .def_261))
(define-fun .def_263 () (Array Int Int) (store .def_262 .def_222 .def_260))
(define-fun .def_264 () Int (select .def_263 .def_122))
(define-fun .def_265 () Int (select .def_263 .def_127))
(define-fun .def_266 () Bool (<= .def_265 .def_264))
(define-fun .def_267 () Bool (not .def_266))
(define-fun .def_268 () Int (ite .def_267 4 3))
(define-fun .def_269 () Int (* 4 .def_268))
(define-fun .def_270 () Int (+ .def_62 .def_269))
(define-fun .def_271 () Bool (<= .def_270 4))
(define-fun .def_272 () Bool (not .def_271))
(define-fun .def_137 () Bool (<= .def_62 4))
(define-fun .def_273 () Bool (or .def_137 .def_272))
(define-fun .def_247 () Bool (not .y.12))
(define-fun .def_245 () Bool (= .y.13 0))
(define-fun .def_239 () Bool (not .def_137))
(define-fun .def_235 () Bool (<= .def_132 0))
(define-fun .def_236 () Bool (not .def_235))
(define-fun .def_237 () Bool (or .def_137 .def_236))
(define-fun .def_231 () Bool (<= .def_127 0))
(define-fun .def_232 () Bool (not .def_231))
(define-fun .def_233 () Bool (or .def_137 .def_232))
(define-fun .def_227 () Bool (<= .def_122 0))
(define-fun .def_228 () Bool (not .def_227))
(define-fun .def_229 () Bool (or .def_137 .def_228))
(define-fun .def_223 () Bool (<= .def_222 0))
(define-fun .def_224 () Bool (not .def_223))
(define-fun .def_225 () Bool (or .def_137 .def_224))
(define-fun .def_218 () Bool (<= .def_117 0))
(define-fun .def_219 () Bool (not .def_218))
(define-fun .def_220 () Bool (or .def_137 .def_219))
(define-fun .def_214 () Bool (<= .def_213 0))
(define-fun .def_215 () Bool (not .def_214))
(define-fun .def_216 () Bool (or .def_137 .def_215))
(define-fun .def_209 () Bool (<= .def_112 0))
(define-fun .def_210 () Bool (not .def_209))
(define-fun .def_211 () Bool (or .def_137 .def_210))
(define-fun .def_205 () Bool (<= .def_107 0))
(define-fun .def_206 () Bool (not .def_205))
(define-fun .def_207 () Bool (or .def_137 .def_206))
(define-fun .def_201 () Bool (<= .def_102 0))
(define-fun .def_202 () Bool (not .def_201))
(define-fun .def_203 () Bool (or .def_137 .def_202))
(define-fun .def_197 () Bool (<= .def_196 0))
(define-fun .def_198 () Bool (not .def_197))
(define-fun .def_199 () Bool (or .def_137 .def_198))
(define-fun .def_192 () Bool (<= .def_191 0))
(define-fun .def_193 () Bool (not .def_192))
(define-fun .def_194 () Bool (or .def_137 .def_193))
(define-fun .def_187 () Bool (<= .def_96 0))
(define-fun .def_188 () Bool (not .def_187))
(define-fun .def_189 () Bool (or .def_137 .def_188))
(define-fun .def_183 () Bool (<= .def_182 0))
(define-fun .def_184 () Bool (not .def_183))
(define-fun .def_185 () Bool (or .def_137 .def_184))
(define-fun .def_178 () Bool (<= .def_90 0))
(define-fun .def_179 () Bool (not .def_178))
(define-fun .def_180 () Bool (or .def_137 .def_179))
(define-fun .def_174 () Bool (<= .def_84 0))
(define-fun .def_175 () Bool (not .def_174))
(define-fun .def_176 () Bool (or .def_137 .def_175))
(define-fun .def_170 () Bool (<= .def_169 0))
(define-fun .def_171 () Bool (not .def_170))
(define-fun .def_172 () Bool (or .def_137 .def_171))
(define-fun .def_165 () Bool (<= .def_164 0))
(define-fun .def_166 () Bool (not .def_165))
(define-fun .def_167 () Bool (or .def_137 .def_166))
(define-fun .def_160 () Bool (<= .def_77 0))
(define-fun .def_161 () Bool (not .def_160))
(define-fun .def_162 () Bool (or .def_137 .def_161))
(define-fun .def_156 () Bool (<= .def_155 0))
(define-fun .def_157 () Bool (not .def_156))
(define-fun .def_158 () Bool (or .def_137 .def_157))
(define-fun .def_151 () Bool (<= .def_64 0))
(define-fun .def_152 () Bool (not .def_151))
(define-fun .def_153 () Bool (or .def_137 .def_152))
(define-fun .def_147 () Bool (<= .def_146 0))
(define-fun .def_148 () Bool (not .def_147))
(define-fun .def_149 () Bool (or .def_137 .def_148))
(define-fun .def_142 () Bool (<= .def_70 0))
(define-fun .def_143 () Bool (not .def_142))
(define-fun .def_144 () Bool (or .def_137 .def_143))
(define-fun .def_138 () Bool (<= .def_62 0))
(define-fun .def_139 () Bool (not .def_138))
(define-fun .def_140 () Bool (or .def_137 .def_139))
(define-fun .def_133 () Int (* (- 1) .def_132))
(define-fun .def_134 () Int (+ .def_62 .def_133))
(define-fun .def_135 () Bool (= .def_134 (- 8)))
(define-fun .def_128 () Int (* (- 1) .def_127))
(define-fun .def_129 () Int (+ .def_62 .def_128))
(define-fun .def_130 () Bool (= .def_129 (- 8)))
(define-fun .def_123 () Int (* (- 1) .def_122))
(define-fun .def_124 () Int (+ .def_62 .def_123))
(define-fun .def_125 () Bool (= .def_124 (- 12)))
(define-fun .def_118 () Int (* (- 1) .def_117))
(define-fun .def_119 () Int (+ .def_62 .def_118))
(define-fun .def_120 () Bool (= .def_119 (- 4)))
(define-fun .def_113 () Int (* (- 1) .def_112))
(define-fun .def_114 () Int (+ .def_62 .def_113))
(define-fun .def_115 () Bool (= .def_114 (- 12)))
(define-fun .def_108 () Int (* (- 1) .def_107))
(define-fun .def_109 () Int (+ .def_62 .def_108))
(define-fun .def_110 () Bool (= .def_109 (- 4)))
(define-fun .def_103 () Int (* (- 1) .def_102))
(define-fun .def_104 () Int (+ .def_62 .def_103))
(define-fun .def_105 () Bool (= .def_104 (- 8)))
(define-fun .def_98 () Int (* (- 1) .def_96))
(define-fun .def_99 () Int (+ .def_62 .def_98))
(define-fun .def_100 () Bool (= .def_99 (- 12)))
(define-fun .def_92 () Int (* (- 1) .def_90))
(define-fun .def_93 () Int (+ .def_62 .def_92))
(define-fun .def_94 () Bool (= .def_93 (- 8)))
(define-fun .def_86 () Int (* (- 1) .def_84))
(define-fun .def_87 () Int (+ .def_62 .def_86))
(define-fun .def_88 () Bool (= .def_87 (- 4)))
(define-fun .def_80 () Int (* (- 1) .def_77))
(define-fun .def_81 () Int (+ .def_62 .def_80))
(define-fun .def_82 () Bool (= .def_81 (- 12)))
(define-fun .def_72 () Int (* (- 1) .def_70))
(define-fun .def_73 () Int (+ .def_62 .def_72))
(define-fun .def_74 () Bool (= .def_73 (- 4)))
(define-fun .def_67 () Int (* (- 1) .def_64))
(define-fun .def_68 () Int (+ .def_62 .def_67))
(define-fun .def_69 () Bool (= .def_68 (- 8)))
(define-fun .def_75 () Bool (and .def_69 .def_74))
(define-fun .def_83 () Bool (and .def_75 .def_82))
(define-fun .def_89 () Bool (and .def_83 .def_88))
(define-fun .def_95 () Bool (and .def_89 .def_94))
(define-fun .def_101 () Bool (and .def_95 .def_100))
(define-fun .def_106 () Bool (and .def_101 .def_105))
(define-fun .def_111 () Bool (and .def_106 .def_110))
(define-fun .def_116 () Bool (and .def_111 .def_115))
(define-fun .def_121 () Bool (and .def_116 .def_120))
(define-fun .def_126 () Bool (and .def_121 .def_125))
(define-fun .def_131 () Bool (and .def_126 .def_130))
(define-fun .def_136 () Bool (and .def_131 .def_135))
(define-fun .def_141 () Bool (and .def_136 .def_140))
(define-fun .def_145 () Bool (and .def_141 .def_144))
(define-fun .def_150 () Bool (and .def_145 .def_149))
(define-fun .def_154 () Bool (and .def_150 .def_153))
(define-fun .def_159 () Bool (and .def_154 .def_158))
(define-fun .def_163 () Bool (and .def_159 .def_162))
(define-fun .def_168 () Bool (and .def_163 .def_167))
(define-fun .def_173 () Bool (and .def_168 .def_172))
(define-fun .def_177 () Bool (and .def_173 .def_176))
(define-fun .def_181 () Bool (and .def_177 .def_180))
(define-fun .def_186 () Bool (and .def_181 .def_185))
(define-fun .def_190 () Bool (and .def_186 .def_189))
(define-fun .def_195 () Bool (and .def_190 .def_194))
(define-fun .def_200 () Bool (and .def_195 .def_199))
(define-fun .def_204 () Bool (and .def_200 .def_203))
(define-fun .def_208 () Bool (and .def_204 .def_207))
(define-fun .def_212 () Bool (and .def_208 .def_211))
(define-fun .def_217 () Bool (and .def_212 .def_216))
(define-fun .def_221 () Bool (and .def_217 .def_220))
(define-fun .def_226 () Bool (and .def_221 .def_225))
(define-fun .def_230 () Bool (and .def_226 .def_229))
(define-fun .def_234 () Bool (and .def_230 .def_233))
(define-fun .def_238 () Bool (and .def_234 .def_237))
(define-fun .def_240 () Bool (and .def_238 .def_239))
(define-fun .def_241 () Bool (and .loc.16 .def_240))
(define-fun .def_41 () Bool (not .loc.17))
(define-fun .def_242 () Bool (and .def_41 .def_241))
(define-fun .def_244 () Bool (and .def_242 .def_243))
(define-fun .def_246 () Bool (and .def_244 .def_245))
(define-fun .def_248 () Bool (and .def_246 .def_247))
(define-fun .def_274 () Bool (and .def_248 .def_273))
(define-fun .def_279 () Bool (and .def_274 .def_278))
(define-fun .def_283 () Bool (and .def_279 .def_282))
(define-fun .def_287 () Bool (and .def_283 .def_286))
(define-fun .def_292 () Bool (and .def_287 .def_291))
(define-fun .def_294 () Bool (and .def_292 .def_293))
(define-fun .def_312 () Bool (and .def_294 .def_311))
(define-fun .def_320 () Bool (and .def_312 .def_319))
(define-fun .def_343 () Bool (and .def_320 .def_342))
(define-fun .def_352 () Bool (and .def_343 .def_351))
(define-fun .def_361 () Bool (and .def_352 .def_360))
(define-fun .def_389 () Bool (and .def_361 .def_388))
(define-fun .def_398 () Bool (and .def_389 .def_397))
(define-fun .def_407 () Bool (and .def_398 .def_406))
(define-fun .def_416 () Bool (and .def_407 .def_415))
(define-fun .def_429 () Bool (and .def_416 .def_428))
(define-fun .def_437 () Bool (or .def_429 .def_436))
(define-fun .def_59 () Bool (= .def_16 .y.15))
(define-fun .def_57 () Bool (= .def_14 .y.14))
(define-fun .def_53 () Int (* (- 1) .y.13))
(define-fun .def_54 () Int (+ .def_12 .def_53))
(define-fun .def_55 () Bool (= .def_54 (- 1)))
(define-fun .def_51 () Bool (= .y.12 .def_50))
(define-fun .def_35 () Bool (and .def_26 .def_34))
(define-fun .def_38 () Bool (and .def_35 .def_37))
(define-fun .def_39 () Bool (and .def_18 .def_38))
(define-fun .def_40 () Bool (and .loc.16 .def_39))
(define-fun .def_42 () Bool (and .def_40 .def_41))
(define-fun .def_52 () Bool (and .def_42 .def_51))
(define-fun .def_56 () Bool (and .def_52 .def_55))
(define-fun .def_58 () Bool (and .def_56 .def_57))
(define-fun .def_60 () Bool (and .def_58 .def_59))
(define-fun .def_438 () Bool (or .def_60 .def_437))
(define-fun .def_440 () Bool (! (and .def_438 .def_439) :trans true))
(define-fun .def_442 () Bool (and .def_20 .def_243))
(define-fun .def_443 () Bool (! (not .def_442) :invar-property 0))
(assert true)
